c turning on binary mode checking
c parsing input formula with 259840 variables and 1039919 clauses
c finished parsing, read 23953727 bytes from proof file
c detected empty clause; start verification via backward checking
c 10411 of 1039919 clauses in core                            
c 12983 of 612788 lemmas in core using 110465 resolution steps
c 0 RAT lemmas in core; 972 redundant literals in core lemmas
s VERIFIED
c verification time: 2.696 seconds
